45
1 0 8
2 0 34
2 1 7
3 0 17
3 1 29
3 2 49
4 0 30
4 1 18
4 2 17
4 3 15
5 0 45
5 1 48
5 2 37
5 3 29
5 4 25
6 0 18
6 1 43
6 2 7
6 3 9
6 4 20
6 5 19
7 0 36
7 1 9
7 2 28
7 3 22
7 4 10
7 5 3
7 6 39
8 0 37
8 1 6
8 2 12
8 3 17
8 4 29
8 5 22
8 6 23
8 7 18
9 0 22
9 1 34
9 2 13
9 3 12
9 4 14
9 5 43
9 6 27
9 7 26
9 8 28
10 0 47
10 1 34
10 2 44
10 3 48
10 4 7
10 5 36
10 6 6
10 7 50
10 8 43
10 9 36
11 0 28
11 1 3
11 2 46
11 3 5
11 4 49
11 5 42
11 6 8
11 7 41
11 8 12
11 9 34
11 10 48
12 0 24
12 1 48
12 2 46
12 3 44
12 4 45
12 5 11
12 6 38
12 7 36
12 8 31
12 9 47
12 10 20
12 11 30
13 0 17
13 1 14
13 2 29
13 3 43
13 4 21
13 5 27
13 6 30
13 7 45
13 8 40
13 9 18
13 10 32
13 11 10
13 12 3
14 0 38
14 1 37
14 2 16
14 3 24
14 4 43
14 5 43
14 6 24
14 7 7
14 8 8
14 9 1
14 10 39
14 11 30
14 12 24
14 13 11
15 0 38
15 1 42
15 2 13
15 3 33
15 4 18
15 5 4
15 6 27
15 7 32
15 8 28
15 9 50
15 10 11
15 11 5
15 12 25
15 13 21
15 14 47
16 0 20
16 1 27
16 2 16
16 3 44
16 4 14
16 5 39
16 6 48
16 7 28
16 8 36
16 9 49
16 10 17
16 11 2
16 12 10
16 13 41
16 14 11
16 15 19
17 0 44
17 1 44
17 2 33
17 3 3
17 4 13
17 5 50
17 6 29
17 7 47
17 8 30
17 9 37
17 10 44
17 11 41
17 12 5
17 13 8
17 14 7
17 15 30
17 16 39
18 0 1
18 1 42
18 2 42
18 3 10
18 4 12
18 5 44
18 6 1
18 7 36
18 8 16
18 9 24
18 10 45
18 11 47
18 12 40
18 13 48
18 14 31
18 15 27
18 16 6
18 17 1
19 0 37
19 1 20
19 2 22
19 3 19
19 4 5
19 5 2
19 6 16
19 7 46
19 8 14
19 9 32
19 10 13
19 11 39
19 12 50
19 13 2
19 14 21
19 15 49
19 16 46
19 17 39
19 18 8
20 0 27
20 1 20
20 2 40
20 3 15
20 4 10
20 5 18
20 6 23
20 7 1
20 8 4
20 9 22
20 10 5
20 11 39
20 12 50
20 13 27
20 14 6
20 15 48
20 16 21
20 17 11
20 18 23
20 19 42
21 0 47
21 1 49
21 2 40
21 3 18
21 4 48
21 5 24
21 6 48
21 7 20
21 8 47
21 9 20
21 10 26
21 11 44
21 12 25
21 13 22
21 14 5
21 15 47
21 16 1
21 17 31
21 18 17
21 19 26
21 20 27
22 0 35
22 1 18
22 2 35
22 3 23
22 4 40
22 5 3
22 6 14
22 7 40
22 8 9
22 9 41
22 10 29
22 11 26
22 12 47
22 13 17
22 14 10
22 15 43
22 16 50
22 17 25
22 18 33
22 19 31
22 20 34
22 21 39
23 0 42
23 1 13
23 2 36
23 3 30
23 4 28
23 5 47
23 6 26
23 7 11
23 8 6
23 9 34
23 10 7
23 11 29
23 12 11
23 13 33
23 14 2
23 15 48
23 16 40
23 17 18
23 18 36
23 19 12
23 20 33
23 21 28
23 22 44
24 0 20
24 1 1
24 2 43
24 3 27
24 4 20
24 5 4
24 6 6
24 7 25
24 8 23
24 9 31
24 10 47
24 11 35
24 12 36
24 13 48
24 14 9
24 15 36
24 16 20
24 17 35
24 18 39
24 19 22
24 20 10
24 21 28
24 22 50
24 23 10
25 0 26
25 1 33
25 2 19
25 3 31
25 4 32
25 5 18
25 6 49
25 7 22
25 8 7
25 9 29
25 10 7
25 11 3
25 12 44
25 13 45
25 14 25
25 15 49
25 16 32
25 17 12
25 18 45
25 19 49
25 20 2
25 21 28
25 22 37
25 23 45
25 24 28
26 0 12
26 1 43
26 2 19
26 3 20
26 4 38
26 5 31
26 6 34
26 7 43
26 8 47
26 9 10
26 10 41
26 11 21
26 12 4
26 13 16
26 14 19
26 15 19
26 16 20
26 17 21
26 18 38
26 19 17
26 20 43
26 21 18
26 22 44
26 23 10
26 24 8
26 25 18
27 0 18
27 1 47
27 2 31
27 3 10
27 4 43
27 5 16
27 6 3
27 7 12
27 8 5
27 9 43
27 10 1
27 11 1
27 12 32
27 13 16
27 14 43
27 15 46
27 16 28
27 17 3
27 18 33
27 19 25
27 20 29
27 21 14
27 22 45
27 23 26
27 24 8
27 25 44
27 26 17
28 0 30
28 1 36
28 2 28
28 3 30
28 4 11
28 5 6
28 6 12
28 7 15
28 8 9
28 9 36
28 10 1
28 11 48
28 12 9
28 13 7
28 14 20
28 15 37
28 16 40
28 17 50
28 18 3
28 19 43
28 20 1
28 21 30
28 22 45
28 23 20
28 24 19
28 25 21
28 26 48
28 27 26
29 0 6
29 1 20
29 2 7
29 3 28
29 4 47
29 5 49
29 6 13
29 7 28
29 8 23
29 9 1
29 10 43
29 11 44
29 12 9
29 13 2
29 14 14
29 15 16
29 16 32
29 17 32
29 18 26
29 19 35
29 20 15
29 21 37
29 22 33
29 23 41
29 24 2
29 25 17
29 26 33
29 27 16
29 28 24
30 0 36
30 1 11
30 2 45
30 3 15
30 4 9
30 5 38
30 6 34
30 7 34
30 8 5
30 9 33
30 10 2
30 11 3
30 12 29
30 13 24
30 14 44
30 15 7
30 16 1
30 17 35
30 18 16
30 19 41
30 20 26
30 21 12
30 22 13
30 23 9
30 24 48
30 25 45
30 26 7
30 27 11
30 28 47
30 29 6
31 0 15
31 1 28
31 2 1
31 3 6
31 4 2
31 5 17
31 6 6
31 7 11
31 8 1
31 9 15
31 10 45
31 11 30
31 12 9
31 13 24
31 14 11
31 15 11
31 16 14
31 17 6
31 18 28
31 19 25
31 20 4
31 21 45
31 22 29
31 23 31
31 24 23
31 25 8
31 26 4
31 27 16
31 28 1
31 29 8
31 30 28
32 0 44
32 1 7
32 2 18
32 3 37
32 4 35
32 5 24
32 6 11
32 7 42
32 8 17
32 9 8
32 10 8
32 11 22
32 12 49
32 13 23
32 14 17
32 15 17
32 16 14
32 17 30
32 18 47
32 19 30
32 20 9
32 21 42
32 22 33
32 23 38
32 24 24
32 25 11
32 26 33
32 27 49
32 28 46
32 29 23
32 30 23
32 31 21
33 0 44
33 1 43
33 2 11
33 3 12
33 4 31
33 5 19
33 6 21
33 7 1
33 8 3
33 9 5
33 10 6
33 11 22
33 12 26
33 13 38
33 14 9
33 15 27
33 16 28
33 17 3
33 18 42
33 19 2
33 20 9
33 21 1
33 22 5
33 23 6
33 24 49
33 25 24
33 26 20
33 27 8
33 28 39
33 29 28
33 30 22
33 31 3
33 32 9
34 0 38
34 1 36
34 2 6
34 3 38
34 4 39
34 5 22
34 6 37
34 7 2
34 8 26
34 9 12
34 10 12
34 11 18
34 12 32
34 13 49
34 14 41
34 15 18
34 16 43
34 17 8
34 18 5
34 19 28
34 20 25
34 21 11
34 22 11
34 23 20
34 24 16
34 25 6
34 26 45
34 27 38
34 28 30
34 29 37
34 30 20
34 31 25
34 32 31
34 33 18
35 0 11
35 1 48
35 2 34
35 3 29
35 4 24
35 5 13
35 6 37
35 7 18
35 8 4
35 9 37
35 10 19
35 11 45
35 12 29
35 13 1
35 14 6
35 15 50
35 16 19
35 17 29
35 18 35
35 19 25
35 20 2
35 21 35
35 22 10
35 23 13
35 24 20
35 25 6
35 26 8
35 27 46
35 28 48
35 29 47
35 30 39
35 31 12
35 32 44
35 33 32
35 34 10
36 0 25
36 1 18
36 2 41
36 3 2
36 4 41
36 5 10
36 6 31
36 7 11
36 8 46
36 9 47
36 10 30
36 11 12
36 12 42
36 13 50
36 14 23
36 15 37
36 16 35
36 17 18
36 18 10
36 19 50
36 20 24
36 21 49
36 22 9
36 23 19
36 24 14
36 25 48
36 26 34
36 27 22
36 28 31
36 29 5
36 30 21
36 31 38
36 32 49
36 33 15
36 34 23
36 35 41
37 0 7
37 1 50
37 2 18
37 3 22
37 4 25
37 5 43
37 6 25
37 7 48
37 8 9
37 9 41
37 10 48
37 11 33
37 12 24
37 13 38
37 14 12
37 15 15
37 16 25
37 17 9
37 18 2
37 19 2
37 20 18
37 21 29
37 22 26
37 23 34
37 24 35
37 25 31
37 26 44
37 27 14
37 28 21
37 29 4
37 30 14
37 31 29
37 32 29
37 33 11
37 34 20
37 35 31
37 36 11
38 0 9
38 1 7
38 2 26
38 3 14
38 4 27
38 5 1
38 6 25
38 7 50
38 8 41
38 9 42
38 10 24
38 11 30
38 12 48
38 13 7
38 14 38
38 15 34
38 16 48
38 17 32
38 18 33
38 19 10
38 20 8
38 21 3
38 22 10
38 23 34
38 24 31
38 25 18
38 26 16
38 27 44
38 28 2
38 29 44
38 30 35
38 31 21
38 32 47
38 33 29
38 34 40
38 35 37
38 36 45
38 37 27
39 0 23
39 1 33
39 2 15
39 3 18
39 4 42
39 5 18
39 6 40
39 7 47
39 8 5
39 9 18
39 10 26
39 11 10
39 12 40
39 13 50
39 14 25
39 15 14
39 16 41
39 17 30
39 18 4
39 19 25
39 20 23
39 21 45
39 22 17
39 23 14
39 24 8
39 25 46
39 26 22
39 27 12
39 28 27
39 29 9
39 30 40
39 31 44
39 32 6
39 33 33
39 34 14
39 35 7
39 36 39
39 37 15
39 38 48
40 0 33
40 1 39
40 2 39
40 3 50
40 4 50
40 5 48
40 6 45
40 7 35
40 8 33
40 9 14
40 10 35
40 11 1
40 12 39
40 13 11
40 14 10
40 15 37
40 16 7
40 17 11
40 18 30
40 19 21
40 20 27
40 21 23
40 22 47
40 23 23
40 24 31
40 25 27
40 26 38
40 27 16
40 28 8
40 29 2
40 30 26
40 31 25
40 32 40
40 33 40
40 34 13
40 35 32
40 36 10
40 37 24
40 38 7
40 39 10
41 0 44
41 1 42
41 2 43
41 3 25
41 4 12
41 5 28
41 6 43
41 7 42
41 8 34
41 9 48
41 10 7
41 11 9
41 12 23
41 13 19
41 14 31
41 15 31
41 16 9
41 17 23
41 18 44
41 19 31
41 20 36
41 21 35
41 22 20
41 23 29
41 24 47
41 25 29
41 26 36
41 27 19
41 28 43
41 29 23
41 30 8
41 31 3
41 32 39
41 33 48
41 34 46
41 35 18
41 36 29
41 37 27
41 38 48
41 39 17
41 40 21
42 0 24
42 1 28
42 2 41
42 3 17
42 4 21
42 5 44
42 6 33
42 7 24
42 8 19
42 9 37
42 10 6
42 11 3
42 12 23
42 13 10
42 14 23
42 15 14
42 16 9
42 17 14
42 18 49
42 19 36
42 20 44
42 21 11
42 22 50
42 23 1
42 24 27
42 25 22
42 26 14
42 27 38
42 28 15
42 29 17
42 30 8
42 31 47
42 32 1
42 33 50
42 34 15
42 35 24
42 36 10
42 37 50
42 38 37
42 39 30
42 40 41
42 41 27
43 0 39
43 1 3
43 2 39
43 3 38
43 4 41
43 5 17
43 6 19
43 7 48
43 8 10
43 9 38
43 10 35
43 11 1
43 12 33
43 13 38
43 14 49
43 15 10
43 16 48
43 17 35
43 18 16
43 19 11
43 20 35
43 21 19
43 22 11
43 23 16
43 24 34
43 25 36
43 26 44
43 27 28
43 28 49
43 29 22
43 30 20
43 31 32
43 32 30
43 33 41
43 34 48
43 35 4
43 36 39
43 37 32
43 38 44
43 39 17
43 40 46
43 41 46
43 42 5
44 0 22
44 1 36
44 2 15
44 3 20
44 4 50
44 5 13
44 6 46
44 7 29
44 8 44
44 9 45
44 10 14
44 11 7
44 12 36
44 13 12
44 14 10
44 15 19
44 16 5
44 17 31
44 18 16
44 19 50
44 20 10
44 21 43
44 22 21
44 23 19
44 24 6
44 25 7
44 26 15
44 27 23
44 28 11
44 29 15
44 30 34
44 31 28
44 32 5
44 33 1
44 34 35
44 35 37
44 36 13
44 37 22
44 38 9
44 39 32
44 40 15
44 41 22
44 42 2
44 43 27
